language ESSENCE' 1.0

letting hosts_ExplicitVarSizeWithMarker_Marker be 4
letting hosts_ExplicitVarSizeWithMarker_Values be [1, 2, 3, 4, 1; int(1..5)]
letting sched_ExplicitR9_Function1D be
        [[1, 2, 3, 4, 1; int(1..5)], [1, 2, 3, 4, 2; int(1..5)], [1, 2, 3, 4, 3; int(1..5)], [1, 2, 3, 4, 4; int(1..5)];
             int(1..4)]
$ Visualisation for sched_ExplicitR9_Function1D
$ 1 2 3 4 1
$ 1 2 3 4 2
$ 1 2 3 4 3
$ 1 2 3 4 4

